param n := 2;

param m := 2;

param K := 20;

param a :=
1 	 0.019367
2 	 0.678836
;
 param A :=
[1, *, *]:  1	2	:=
1	-0.576744	-0.016854	
2	-0.468907	-0.893275	

[2, *, *]:  1	2	:=
1	0.148235	0.178611	
2	-0.706543	0.399517	
;